     Program PWSCF v.6.3 starts on 16Jan2019 at 17:35:56

     R & G space division:  proc/nbgrp/npool/nimage =      40
     Reading input from /scratch/beachk2/Korea/W-V-Se/noSOC/Wvac/relax.in
Warning: card &CELL ignored
Warning: card PRESS=0 ignored
Warning: card CELL_DOFREE='ALL' ignored
Warning: card PRESS_CONV_THR=0.1 ignored
Warning: card / ignored

     Current dimensions of program PWSCF are:
     Max number of different atomic species (ntypx) = 10
     Max number of k-points (npk) =  40000
     Max angular momentum in pseudopotentials (lmaxx) =  3
     Message from routine read_upf::
     Pseudo file /scratch/beachk2/Korea/W-V-Se/W.pbesol-spn-kjpaw_psl.0.2.3.UPF has been successfully fixed on the fly.
To avoid this message in the future you can permanently fix
 your pseudo files following instructions given in:
               file W.pbesol-spn-kjpaw_psl.0.2.3.UPF: wavefunction(s)  5D renormalized
     Message from routine read_upf::
     Pseudo file /scratch/beachk2/Korea/W-V-Se/Se.pbesol-n-kjpaw_psl.0.2.UPF has been successfully fixed on the fly.
To avoid this message in the future you can permanently fix
 your pseudo files following instructions given in:
               file Se.pbesol-n-kjpaw_psl.0.2.UPF: wavefunction(s)  4S renormalized

     bravais-lattice index     =            0
     lattice parameter (alat)  =      37.1609  a.u.
     unit-cell volume          =   45199.1818 (a.u.)^3
     number of atoms/cell      =          107
     number of atomic types    =            2
     number of electrons       =       922.00
     number of Kohn-Sham states=          553
     kinetic-energy cutoff     =      30.0000  Ry
     charge density cutoff     =     120.0000  Ry
     convergence threshold     =      1.0E-07
     mixing beta               =       0.2000
     number of iterations used =            8  plain     mixing
     Exchange-correlation      = SLA PW PSX PSC ( 1  4 10  8 0 0)
     nstep                     =           50

     celldm(1)=  37.160864  celldm(2)=   0.000000  celldm(3)=   0.000000
     celldm(4)=   0.000000  celldm(5)=   0.000000  celldm(6)=   0.000000

     crystal axes: (cart. coord. in units of alat)
               a(1) = (   1.000000   0.000000   0.000000 )
               a(2) = (  -0.500000   0.866025   0.000000 )
               a(3) = (   0.000000   0.000000   1.017051 )

     reciprocal axes: (cart. coord. in units 2 pi/alat)
               b(1) = (  1.000000  0.577350  0.000000 )
               b(2) = (  0.000000  1.154701  0.000000 )
               b(3) = (  0.000000  0.000000  0.983235 )

     PseudoPot. # 1 for W  read from file:
     /scratch/beachk2/Korea/W-V-Se/W.pbesol-spn-kjpaw_psl.0.2.3.UPF
     MD5 check sum: 3489c92d351ecbcf2c7b5f80874fc77e
     Pseudo is Projector augmented-wave + core cor, Zval = 14.0
     Generated using "atomic" code by A. Dal Corso v.5.0.99 svn rev. 10869
     Shape of augmentation charge: BESSEL
     Using radial grid of 1273 points,  6 beta functions with:
                l(1) =   0
                l(2) =   0
                l(3) =   1
                l(4) =   1
                l(5) =   2
                l(6) =   2
     Q(r) pseudized with 0 coefficients

     PseudoPot. # 2 for Se read from file:
     /scratch/beachk2/Korea/W-V-Se/Se.pbesol-n-kjpaw_psl.0.2.UPF
     MD5 check sum: de07b397db81a61c301b7fc26c6d7f40
     Pseudo is Projector augmented-wave + core cor, Zval =  6.0
     Generated using "atomic" code by A. Dal Corso v.5.0.99 svn rev. 10869
     Shape of augmentation charge: PSQ
     Using radial grid of 1211 points,  4 beta functions with:
                l(1) =   0
                l(2) =   0
                l(3) =   1
                l(4) =   1
     Q(r) pseudized with 0 coefficients

     atomic species   valence    mass     pseudopotential
        W             14.00   183.84000     W ( 1.00)
        Se             6.00    78.96000     Se( 1.00)

     No symmetry found

   Cartesian axes

     site n.     atom                  positions (alat units)
         1           W   tau(   1) = (  -0.1662534   0.3853464   0.3681727  )
         2           W   tau(   2) = (   0.0000427   0.3853264   0.3681727  )
         3           W   tau(   3) = (   0.1668262   0.3853462   0.3681728  )
         4           W   tau(   4) = (   0.3335467   0.3852716   0.3681726  )
         5           W   tau(   5) = (  -0.2498659   0.5301090   0.3681729  )
         6           W   tau(   6) = (  -0.0832799   0.5296735   0.3681726  )
         7           W   tau(   7) = (   0.0835371   0.5296194   0.3681726  )
         8           W   tau(   8) = (   0.2502110   0.5296036   0.3681726  )
         9           W   tau(   9) = (   0.4996999   0.3853718   0.3681727  )
        10           W   tau(  10) = (   0.4168026   0.5296943   0.3681724  )
        11           W   tau(  11) = (   0.5832382   0.5300664   0.3681728  )
        12           W   tau(  12) = (  -0.3331900   0.6739829   0.3681726  )
        13           W   tau(  13) = (  -0.1665359   0.6739847   0.3681728  )
        14           W   tau(  14) = (   0.0003006   0.6739525   0.3681727  )
        15           W   tau(  15) = (   0.1670230   0.6739049   0.3681724  )
        16           W   tau(  16) = (  -0.4165657   0.8183948   0.3681729  )
        17           W   tau(  17) = (  -0.2498371   0.8183719   0.3681730  )
        18           W   tau(  18) = (  -0.0830886   0.8183066   0.3681728  )
        19           W   tau(  19) = (   0.0836212   0.8182674   0.3681726  )
        20           W   tau(  20) = (   0.0000546   0.0967208   0.3681726  )
        21           W   tau(  21) = (   0.1667474   0.0967139   0.3681725  )
        22           W   tau(  22) = (   0.3334808   0.0966569   0.3681728  )
        23           W   tau(  23) = (   0.5001760   0.0967097   0.3681726  )
        24           W   tau(  24) = (  -0.0833875   0.2411294   0.3681724  )
        25           W   tau(  25) = (   0.0833955   0.2410715   0.3681726  )
        26           W   tau(  26) = (   0.2500962   0.2410383   0.3681727  )
        27           W   tau(  27) = (   0.4168493   0.2410378   0.3681725  )
        28           W   tau(  28) = (   0.3335855   0.6740123   0.3681725  )
        29           W   tau(  29) = (   0.5002500   0.6740082   0.3681726  )
        30           W   tau(  30) = (   0.2502342   0.8183495   0.3681725  )
        31           W   tau(  31) = (   0.4168246   0.8183551   0.3681725  )
        32           W   tau(  32) = (   0.6667797   0.0967645   0.3681724  )
        33           W   tau(  33) = (   0.8334491   0.0967787   0.3681725  )
        34           W   tau(  34) = (   0.5831126   0.2408143   0.3681726  )
        35           W   tau(  35) = (   0.7502824   0.2407840   0.3681726  )
        36           Se  tau(  36) = (  -0.0833745   0.3372793   0.2828996  )
        37           Se  tau(  37) = (   0.0834154   0.3373098   0.2830556  )
        38           Se  tau(  38) = (   0.2501920   0.3372666   0.2830451  )
        39           Se  tau(  39) = (   0.4168967   0.3371838   0.2828837  )
        40           Se  tau(  40) = (  -0.1668268   0.4815438   0.2831333  )
        41           Se  tau(  41) = (   0.0000796   0.4816000   0.2830672  )
        42           Se  tau(  42) = (   0.1668581   0.4815528   0.2830395  )
        43           Se  tau(  43) = (   0.3335367   0.4815273   0.2830297  )
        44           Se  tau(  44) = (  -0.0833746   0.3372792   0.4534448  )
        45           Se  tau(  45) = (   0.0834153   0.3373098   0.4532891  )
        46           Se  tau(  46) = (   0.2501921   0.3372667   0.4532996  )
        47           Se  tau(  47) = (   0.4168968   0.3371838   0.4534607  )
        48           Se  tau(  48) = (  -0.1668265   0.4815439   0.4532116  )
        49           Se  tau(  49) = (   0.0000796   0.4816002   0.4532775  )
        50           Se  tau(  50) = (   0.1668581   0.4815529   0.4533052  )
        51           Se  tau(  51) = (   0.3335368   0.4815275   0.4533147  )
        52           Se  tau(  52) = (   0.5851259   0.3383477   0.2847469  )
        53           Se  tau(  53) = (   0.7482544   0.3383305   0.2847699  )
        54           Se  tau(  54) = (   0.5002054   0.4815426   0.2830943  )
        55           Se  tau(  55) = (   0.6666752   0.4795959   0.2847475  )
        56           Se  tau(  56) = (   0.5851218   0.3383453   0.4516043  )
        57           Se  tau(  57) = (   0.7482585   0.3383280   0.4515813  )
        58           Se  tau(  58) = (   0.5002051   0.4815427   0.4532505  )
        59           Se  tau(  59) = (   0.6666752   0.4796005   0.4516039  )
        60           Se  tau(  60) = (  -0.2499325   0.6259059   0.2828923  )
[...]
        93           Se  tau(  93) = (   0.5835696   0.6258691   0.2828829  )
        94           Se  tau(  94) = (   0.3335222   0.7702240   0.2830402  )
        95           Se  tau(  95) = (   0.5001460   0.7701978   0.2830451  )
        96           Se  tau(  96) = (   0.7500921   0.0486101   0.2830666  )
        97           Se  tau(  97) = (   0.9167193   0.0485845   0.2830559  )
        98           Se  tau(  98) = (   0.6666885   0.1931819   0.2831320  )
        99           Se  tau(  99) = (   0.8333503   0.1930434   0.2828993  )
       100           Se  tau( 100) = (   0.4168842   0.6258887   0.4533142  )
       101           Se  tau( 101) = (   0.5835695   0.6258691   0.4534617  )
       102           Se  tau( 102) = (   0.3335221   0.7702241   0.4533041  )
       103           Se  tau( 103) = (   0.5001457   0.7701977   0.4532995  )
       104           Se  tau( 104) = (   0.7500920   0.0486101   0.4532777  )
       105           Se  tau( 105) = (   0.9167191   0.0485845   0.4532886  )
       106           Se  tau( 106) = (   0.6666885   0.1931816   0.4532125  )
       107           Se  tau( 107) = (   0.8333503   0.1930434   0.4534448  )

     number of k points=     4  Marzari-Vanderbilt smearing, width (Ry)=  0.0050
                       cart. coord. in units 2pi/alat
        k(    1) = (   0.0000000   0.0000000   0.0000000), wk =   0.5000000
        k(    2) = (   0.0000000  -0.5773505   0.0000000), wk =   0.5000000
        k(    3) = (   0.5000000  -0.2886753   0.0000000), wk =   0.5000000
        k(    4) = (  -0.5000000  -0.2886752   0.0000000), wk =   0.5000000

     Check: negative/imaginary core charge=   -0.000012    0.000000

     Initial potential from superposition of free atoms
     Check: negative starting charge=   -0.045889

     starting charge  921.97512, renormalised to  922.00000

     negative rho (up, down):  4.589E-02 0.000E+00
     Starting wfcs are  743 randomized atomic wfcs
     Checking if some PAW data can be deallocated...

     Self-consistent Calculation

     iteration #  1     ecut=    30.00 Ry     beta= 0.20
     Davidson diagonalization with overlap
     ethr =  1.00E-02,  avg # of iterations =  2.0

     Threshold (ethr) on eigenvalues was too large:
     Diagonalizing with lowered threshold

     Davidson diagonalization with overlap
     ethr =  2.97E-04,  avg # of iterations =  2.8

     negative rho (up, down):  4.691E-02 0.000E+00

     total energy              =  -39671.86137050 Ry
[...]

     Check: negative/imaginary core charge=   -0.000012    0.000000
     Check: negative starting charge=   -0.045985

[...]

     Self-consistent Calculation

[...]

     Threshold (ethr) on eigenvalues was too large:
     Diagonalizing with lowered threshold

     Davidson diagonalization with overlap
     ethr =  3.38E-09,  avg # of iterations =  4.0

[...]

     total energy              =  -39671.72219812 Ry
     Harris-Foulkes estimate   =  -39671.72219812 Ry
     estimated scf accuracy    <          3.9E-09 Ry

     iteration # 14     ecut=    30.00 Ry     beta= 0.20
     Davidson diagonalization with overlap
     ethr =  4.25E-13,  avg # of iterations =  2.0

[...]

     End of self-consistent calculation

[...]

          k = 0.5000-0.2887 0.0000 (125440 PWs)   bands (ev):

[...]

          k =-0.5000-0.2887 0.0000 (125440 PWs)   bands (ev):

   -74.2588 -74.2575 -74.2572 -74.2547 -74.2542 -74.2530 -74.1369 -74.1365
   -74.1365 -74.1148 -74.1137 -74.1136 -74.1112 -74.1100 -74.1099 -74.1078
   -74.1077 -74.1066 -74.1060 -74.1033 -74.1025 -74.1024 -74.0996 -74.0996
   -74.0989 -74.0981 -74.0930 -74.0930 -74.0928 -74.0715 -74.0714 -74.0711
   -74.0711 -74.0710 -74.0709 -38.6040 -38.5929 -38.5927 -38.5455 -38.5454
   -38.5354 -38.4682 -38.4595 -38.4561 -38.4540 -38.4538 -38.4535 -38.4411
   -38.4408 -38.4380 -38.4349 -38.4342 -38.4316 -38.4264 -38.4240 -38.4210
   -38.4187 -38.4145 -38.4122 -38.4091 -38.4019 -38.3992 -38.3987 -38.3969
   -38.3881 -38.3790 -38.3766 -38.3693 -38.3676 -38.3614 -38.3586 -38.3556
   -38.3547 -38.3546 -38.3521 -38.3518 -38.3490 -38.3391 -38.3382 -38.3370
   -38.3364 -38.3342 -38.3285 -38.3279 -38.3250 -38.3248 -38.3237 -38.3227
   -38.3212 -38.3159 -38.3158 -38.3154 -38.3153 -38.3145 -38.3143 -38.3137
   -38.3133 -38.3115 -38.3113 -38.3087 -38.3084 -38.3080 -38.3046 -38.3042
   -38.3038 -38.2968 -38.2968 -38.2867 -38.2853 -38.2839 -38.2838 -38.2834
   -38.2824 -38.2821 -38.2818 -38.2818 -38.2815 -38.2752 -38.2742 -38.2697
   -38.2694 -38.2674 -38.2645 -38.2638 -38.2588 -38.2579 -38.2543 -38.2492
   -38.2483 -38.2444 -38.2401 -38.2349 -38.2338 -38.2270 -38.2249 -38.2197
   -38.2194 -38.2177 -38.2110 -38.2078 -14.8557 -14.8060 -14.6400 -14.5791
   -14.2673 -14.2452 -14.2404 -14.1745 -14.0680 -13.9807 -13.7614 -13.7613
   -13.7051 -13.6281 -13.6174 -13.5980 -13.5140 -13.4782 -13.3510 -13.3341
   -13.3302 -13.3259 -13.3172 -13.3085 -13.2874 -13.2815 -13.2594 -13.2274
   -13.2168 -13.1767 -13.1683 -13.1417 -13.0859 -13.0858 -13.0847 -13.0393
   -12.9939 -12.9437 -12.9366 -12.9300 -12.9133 -12.9080 -12.8799 -12.8726
   -12.8702 -12.8554 -12.8457 -12.8182 -12.8081 -12.7845 -12.7833 -12.7676
   -12.7438 -12.7410 -12.7110 -12.6894 -12.6882 -12.6859 -12.6841 -12.6771
   -12.6713 -12.6157 -12.5921 -12.5772 -12.5664 -12.5506 -12.5109 -12.3446
   -12.2728 -12.2688 -11.9287 -11.9281  -6.3684  -6.3668  -6.3105  -6.2860
    -6.2653  -6.2557  -6.2293  -6.1963  -6.1345  -6.0374  -5.9928  -5.9232
    -5.8807  -5.8743  -5.8479  -5.8343  -5.7122  -5.7037  -5.6774  -5.6708
    -5.6260  -5.5442  -5.5281  -5.5257  -5.5162  -5.4612  -5.4611  -5.4530
    -5.4465  -5.4453  -5.4201  -5.4184  -5.4113  -5.3830  -5.3376  -5.3311
    -5.3251  -5.2859  -5.2599  -5.2442  -5.2329  -5.1890  -5.1867  -5.1511
    -5.1288  -5.0796  -5.0576  -5.0575  -5.0401  -4.9525  -4.8276  -4.8181
    -4.7401  -4.7387  -4.6198  -4.6019  -4.5808  -4.5761  -4.5561  -4.5431
    -4.4597  -4.4443  -4.4379  -4.4312  -4.4220  -4.4185  -4.4078  -4.3811
    -4.3738  -4.3734  -4.3655  -4.3476  -4.3134  -4.2981  -4.2788  -4.2713
    -4.2518  -4.2041  -4.1984  -4.1731  -4.1614  -4.1502  -4.1171  -4.1134
    -4.0980  -4.0822  -4.0551  -4.0527  -4.0203  -4.0168  -3.9148  -3.8270
    -3.7714  -3.7553  -3.7383  -3.6675  -3.6242  -3.5723  -3.5533  -3.4983
    -3.4960  -3.4843  -3.4836  -3.4835  -3.4650  -3.4543  -3.4422  -3.4392
    -3.4169  -3.4145  -3.4020  -3.3848  -3.3818  -3.3483  -3.2566  -3.2529
    -3.2359  -3.2286  -3.2091  -3.1867  -3.1750  -3.1605  -3.1531  -3.1433
    -3.0970  -3.0823  -3.0725  -3.0087  -2.9952  -2.9649  -2.9504  -2.9333
    -2.8900  -2.8574  -2.7642  -2.7418  -2.7342  -2.7250  -2.6664  -2.6408
    -2.5678  -2.5418  -2.5314  -2.5306  -2.4877  -2.4682  -2.4646  -2.4595
    -2.4135  -2.3537  -2.3454  -2.3322  -2.3306  -2.3219  -2.3149  -2.3022
    -2.2667  -2.2558  -2.2366  -2.2323  -2.2268  -2.2054  -2.2013  -2.1790
    -2.1353  -2.0592  -2.0568  -2.0532  -2.0192  -2.0101  -2.0006  -1.9944
    -1.9198  -1.8993  -1.8967  -1.8915  -1.8879  -1.8848  -1.8659  -1.8447
    -1.8441  -1.8302  -1.8280  -1.8145  -1.7894  -1.7646  -1.7527  -1.7483
    -1.7403  -1.7249  -1.7157  -1.6953  -1.6690  -1.6559  -1.6541  -1.6478
    -1.6330  -1.6044  -1.5791  -1.5581  -1.5308  -1.5075  -1.4362  -1.3634
    -1.3136  -1.3074  -1.2888  -1.2763  -1.2521  -1.2437  -1.1889  -1.1828
    -1.1780  -1.0563  -1.0120  -1.0016  -0.9847  -0.9805  -0.9741  -0.9219
    -0.8874  -0.8624  -0.8600  -0.8502  -0.8275  -0.8265  -0.8047  -0.7983
    -0.7793  -0.7677  -0.7551  -0.7464  -0.6630  -0.6572  -0.6478  -0.6236
    -0.6206  -0.6129  -0.5685  -0.5584  -0.5211  -0.4728  -0.4574  -0.3807
    -0.3676  -0.3044  -0.2753   0.2538   0.2623   0.4738   0.4834   0.5968
     1.7309   1.7490   1.7549   1.7572   1.7635   1.7765   1.7969   1.7978
     1.8127   1.8228   1.8287   1.8597   1.8610   1.8772   1.8864   1.9226
     1.9318   1.9807   2.0060   2.0349   2.0404   2.0641   2.0880   2.1667
     2.1718   2.1925   2.2297   2.2704   2.2968   2.3367   2.3544   2.3565
     2.3691   2.3819   2.3846   2.3950   2.4049   2.4082   2.4295   2.4312
     2.4347   2.4478   2.4538   2.4555   2.4623   2.4799   2.4896   2.4927
     2.4987   2.5073   2.5380   2.5397   2.5540   2.5740   2.5769   2.6120
     2.6207   2.6252   2.6611   2.6739   2.7048   2.7182   2.7212   2.7290
     2.7446   2.7448   2.7491   2.7648   2.7651   2.7916   2.7933   2.7998
     2.8099   2.8253   2.8270   2.8281   2.8329   2.8359   2.8485   2.8507
     2.8884   2.9015   2.9058   2.9569   2.9973   3.0084   3.0441   3.0657
     3.1409

     the Fermi energy is     0.3186 ev

!    total energy              =  -39671.72219812 Ry
     Harris-Foulkes estimate   =  -39671.72219812 Ry
     estimated scf accuracy    <          4.8E-10 Ry

     total all-electron energy =  -1479374.837567 Ry

     The total energy is the sum of the following terms:

     one-electron contribution =  -35461.25936590 Ry
     hartree contribution      =   17831.54217677 Ry
     xc contribution           =   -2368.78339308 Ry
     ewald contribution        =   12656.41857041 Ry
     one-center paw contrib.   =  -32329.64184412 Ry
     smearing contrib. (-TS)   =       0.00165781 Ry

     convergence has been achieved in  14 iterations

     negative rho (up, down):  4.946E-02 0.000E+00

     Forces acting on atoms (cartesian axes, Ry/au):

     atom    1 type  1   force =    -0.00048422   -0.00012264   -0.00000451
     atom    2 type  1   force =     0.00012941   -0.00007051   -0.00000111
     atom    3 type  1   force =     0.00001709    0.00018834    0.00000061
     atom    4 type  1   force =    -0.00009001   -0.00004069    0.00000095
     atom    5 type  1   force =    -0.00033746   -0.00040608    0.00000391
     atom    6 type  1   force =     0.00009391    0.00005047   -0.00000031
     atom    7 type  1   force =     0.00010517    0.00000153   -0.00000605
     atom    8 type  1   force =    -0.00013705   -0.00000316   -0.00000294
     atom    9 type  1   force =     0.00052543   -0.00010691    0.00000216
     atom   10 type  1   force =    -0.00010641    0.00006327   -0.00000010
     atom   11 type  1   force =     0.00036462   -0.00039840   -0.00000555
     atom   12 type  1   force =    -0.00000979    0.00036428    0.00000435
     atom   13 type  1   force =    -0.00002019    0.00012870    0.00000488
     atom   14 type  1   force =     0.00001230    0.00013865   -0.00000215
     atom   15 type  1   force =    -0.00002788    0.00001496   -0.00001547
     atom   16 type  1   force =    -0.00018305    0.00017369   -0.00000230
     atom   17 type  1   force =     0.00014293    0.00019092   -0.00000259
     atom   18 type  1   force =     0.00009975   -0.00006423   -0.00000230
     atom   19 type  1   force =    -0.00011016   -0.00008188   -0.00000239
     atom   20 type  1   force =     0.00009915   -0.00027031    0.00000095
     atom   21 type  1   force =     0.00000367   -0.00000298    0.00000346
     atom   22 type  1   force =    -0.00009655   -0.00022537   -0.00000024
     atom   23 type  1   force =    -0.00012471   -0.00005137    0.00000651
     atom   24 type  1   force =     0.00036739   -0.00021132    0.00000388
     atom   25 type  1   force =     0.00028313    0.00005137    0.00000002
     atom   26 type  1   force =    -0.00024765    0.00007682   -0.00000226
     atom   27 type  1   force =    -0.00032574   -0.00017459    0.00000219
     atom   28 type  1   force =    -0.00006721    0.00012153   -0.00000430
     atom   29 type  1   force =    -0.00000702    0.00009900    0.00000674
     atom   30 type  1   force =     0.00005554   -0.00009357   -0.00000263
     atom   31 type  1   force =    -0.00015039   -0.00011402   -0.00000117
     atom   32 type  1   force =     0.00000835   -0.00011093   -0.00000341
     atom   33 type  1   force =     0.00012881   -0.00008135    0.00000571
     atom   34 type  1   force =     0.00018535    0.00049260   -0.00000834
     atom   35 type  1   force =    -0.00013494    0.00048435    0.00000429
     atom   36 type  2   force =     0.00025196   -0.00034081    0.00001369
     atom   37 type  2   force =    -0.00032482    0.00005494   -0.00024260
     atom   38 type  2   force =     0.00036834    0.00007785   -0.00025668
     atom   39 type  2   force =    -0.00017882   -0.00029483    0.00001568
     atom   40 type  2   force =    -0.00006100   -0.00005788   -0.00027385
     atom   41 type  2   force =     0.00048130   -0.00058131   -0.00045286
     atom   42 type  2   force =    -0.00001561    0.00016864   -0.00061597
     atom   43 type  2   force =    -0.00049367   -0.00055974   -0.00046166
     atom   44 type  2   force =     0.00025013   -0.00034260   -0.00001167
     atom   45 type  2   force =    -0.00032168    0.00005492    0.00023647
     atom   46 type  2   force =     0.00037046    0.00008058    0.00024737
     atom   47 type  2   force =    -0.00018221   -0.00029399   -0.00001658
     atom   48 type  2   force =    -0.00005826   -0.00005859    0.00027730
     atom   49 type  2   force =     0.00047860   -0.00057692    0.00045896
     atom   50 type  2   force =    -0.00001305    0.00016059    0.00061922
     atom   51 type  2   force =    -0.00049389   -0.00055919    0.00046223
     atom   52 type  2   force =    -0.00047360   -0.00030859    0.00075372
     atom   53 type  2   force =     0.00052624   -0.00030809    0.00079714
     atom   54 type  2   force =     0.00009293   -0.00005391   -0.00026358
     atom   55 type  2   force =     0.00001200    0.00056025    0.00076789
     atom   56 type  2   force =    -0.00047334   -0.00029283   -0.00074728
     atom   57 type  2   force =     0.00052396   -0.00031276   -0.00078649
     atom   58 type  2   force =     0.00009153   -0.00005517    0.00027231
     atom   59 type  2   force =     0.00002196    0.00056443   -0.00074690
     atom   60 type  2   force =    -0.00017578    0.00033183    0.00001258
[...]
     atom   93 type  2   force =     0.00016235    0.00030040    0.00001896
     atom   94 type  2   force =    -0.00014580   -0.00006662   -0.00061784
     atom   95 type  2   force =     0.00011688   -0.00035616   -0.00024761
     atom   96 type  2   force =     0.00074469   -0.00012094   -0.00046128
     atom   97 type  2   force =    -0.00021103    0.00025312   -0.00024325
     atom   98 type  2   force =     0.00001910    0.00008572   -0.00027840
     atom   99 type  2   force =     0.00041343   -0.00004264    0.00001627
     atom  100 type  2   force =     0.00023933    0.00070707    0.00046044
     atom  101 type  2   force =     0.00016312    0.00030720   -0.00001682
     atom  102 type  2   force =    -0.00014765   -0.00006511    0.00061208
     atom  103 type  2   force =     0.00011601   -0.00035941    0.00024682
     atom  104 type  2   force =     0.00074418   -0.00012933    0.00045631
     atom  105 type  2   force =    -0.00021244    0.00025207    0.00024081
     atom  106 type  2   force =     0.00001917    0.00007994    0.00029835
     atom  107 type  2   force =     0.00042486   -0.00004866   -0.00000528

     Total force =     0.005243     Total SCF correction =     0.000069

     bfgs converged in  11 scf cycles and  10 bfgs steps
     (criteria: energy <  1.0E-04 Ry, force <  1.0E-03 Ry/Bohr)

     End of BFGS Geometry Optimization

     Final energy   =  -39671.7221981212 Ry
Begin final coordinates

ATOMIC_POSITIONS (angstrom)
W       -3.275455224   7.545506601   7.240041064
W        0.021307581   7.578844750   7.239845794
W        3.279806707   7.575090211   7.239987566
W        6.538039570   7.578205477   7.239857134
W       -4.942004915  10.433739526   7.240126064
W       -1.649293937  10.408609316   7.240141833
W        1.638210858  10.415805433   7.239993707
W        4.922806579  10.415786112   7.239999762
W        9.834484326   7.544692245   7.240054326
W        8.209828397  10.408398108   7.240133378
W       11.502179932  10.433260369   7.240116606
W       -6.551843348  13.266654245   7.240196563
W       -3.263939414  13.271027883   7.239848839
W        0.001689258  13.251195676   7.239987451
W        3.280973657  13.254201405   7.239829135
W       -8.190959253  16.096258798   7.240011028
W       -4.912753571  16.095838008   7.240045954
W       -1.637358359  16.093751328   7.240008643
W        1.643965426  16.095567141   7.239942918
W        0.004532282   1.900224543   7.239957285
W        3.280009690   1.901349795   7.239844500
W        6.555443095   1.899195231   7.239977749
W        9.826245925   1.883724105   7.239849153
W       -1.627045718   4.734370174   7.240095570
W        1.643276362   4.738440863   7.239993270
W        4.915963320   4.737899642   7.239993996
W        8.186090820   4.733241768   7.240108272
W        6.559981403  13.251522708   7.239984131
W        9.825069331  13.271480025   7.239876105
W        4.917651287  16.095934374   7.239934777
W        8.198661130  16.094721542   7.239992254
W       13.112408871   1.916490400   7.240103906
W       16.398503675   1.884734652   7.239828853
W       11.444305654   4.755501980   7.240041474
W       14.778906743   4.756290278   7.240115593
Se      -1.615573641   6.627967232   5.566490304
Se       1.648387172   6.628385563   5.560547624
Se       4.910840446   6.627861321   5.560577333
Se       8.174460753   6.626915061   5.566547858
Se      -3.301387073   9.455533213   5.576054124
Se      -0.003075683   9.471194375   5.564637249
Se       3.280442635   9.470569191   5.566538626
Se       6.563623131   9.470708292   5.564673482
Se      -1.615443667   6.628050463   8.913480188
Se       1.648325106   6.628425583   8.919331450
Se       4.910887698   6.627897170   8.919315333
Se       8.174328941   6.626998816   8.913444816
Se      -3.301391419   9.455490022   8.904159066
Se      -0.002971395   9.471062669   8.915331429
Se       3.280432353   9.470569885   8.913453659
Se       6.563536278   9.470587657   8.915312596
Se      11.463662875   6.625959199   5.578318662
Se      14.759273017   6.627099048   5.578689472
Se       9.861424795   9.454882742   5.576096588
Se      13.112403697   9.481735066   5.578443996
Se      11.463567327   6.625960460   8.901741456
Se      14.759342839   6.627032714   8.901472872
Se       9.861425235   9.454839753   8.904104341
Se      13.112462550   9.481898707   8.901887126
Se      -4.906224979  12.329872929   5.566466478
[...]
Se      11.467068131  12.329809137   5.566623630
Se       6.557422598  15.146427473   5.566513140
Se       9.834436818  15.155764571   5.560529143
Se      14.747447926   0.959563111   5.564661955
Se      18.035080617   0.950772690   5.560516152
Se      13.111821989   3.823766536   5.576049897
Se      16.403465335   3.777685146   5.566452465
Se       8.198919749  12.303109314   8.915245109
Se      11.466888751  12.329866410   8.913491666
Se       6.557405243  15.146451406   8.913445519
Se       9.834410991  15.155736789   8.919394861
Se      14.747592051   0.959544789   8.915233427
Se      18.035027205   0.950824628   8.919331108
Se      13.111796101   3.823785117   8.904104644
Se      16.403472763   3.777505784   8.913533723
End final coordinates

     Writing output data file v.save/

     General routines

     Parallel routines

      14h

   This run was terminated on:  21:50:43  16Jan2019

   JOB DONE.