     Program PWSCF v.6.3 starts on 18Jan2019 at 18: 4:22

     R & G space division:  proc/nbgrp/npool/nimage =      40
     Reading input from /scratch/beachk2/Korea/W-V-Se/noSOC/Wvac/scf.in
Warning: card &IONS ignored
Warning: card   BFGS_NDIM         = 2, ignored
Warning: card / ignored
Warning: card &CELL ignored
Warning: card PRESS=0 ignored
Warning: card CELL_DOFREE='ALL' ignored
Warning: card PRESS_CONV_THR=0.1 ignored
Warning: card / ignored

     Current dimensions of program PWSCF are:
     Max number of different atomic species (ntypx) = 10
     Max number of k-points (npk) =  40000
     Max angular momentum in pseudopotentials (lmaxx) =  3
     Message from routine read_upf::
     Pseudo file /scratch/beachk2/Korea/W-V-Se/W.pbesol-spn-kjpaw_psl.0.2.3.UPF has been successfully fixed on the fly.
To avoid this message in the future you can permanently fix
 your pseudo files following instructions given in:
               file W.pbesol-spn-kjpaw_psl.0.2.3.UPF: wavefunction(s)  5D renormalized
     Message from routine read_upf::
     Pseudo file /scratch/beachk2/Korea/W-V-Se/Se.pbesol-n-kjpaw_psl.0.2.UPF has been successfully fixed on the fly.
To avoid this message in the future you can permanently fix
 your pseudo files following instructions given in:
               file Se.pbesol-n-kjpaw_psl.0.2.UPF: wavefunction(s)  4S renormalized

     bravais-lattice index     =            0
     lattice parameter (alat)  =      37.1609  a.u.
     unit-cell volume          =   45199.1818 (a.u.)^3
     number of atoms/cell      =          107
     number of atomic types    =            2
     number of electrons       =       922.00
     number of Kohn-Sham states=          553
     kinetic-energy cutoff     =      30.0000  Ry
     charge density cutoff     =     120.0000  Ry
     convergence threshold     =      1.0E-07
     mixing beta               =       0.2000
     number of iterations used =            8  plain     mixing
     Exchange-correlation      = SLA PW PSX PSC ( 1  4 10  8 0 0)

     celldm(1)=  37.160864  celldm(2)=   0.000000  celldm(3)=   0.000000
     celldm(4)=   0.000000  celldm(5)=   0.000000  celldm(6)=   0.000000

     crystal axes: (cart. coord. in units of alat)
               a(1) = (   1.000000   0.000000   0.000000 )
               a(2) = (  -0.500000   0.866025   0.000000 )
               a(3) = (   0.000000   0.000000   1.017051 )

     reciprocal axes: (cart. coord. in units 2 pi/alat)
               b(1) = (  1.000000  0.577350  0.000000 )
               b(2) = (  0.000000  1.154701  0.000000 )
               b(3) = (  0.000000  0.000000  0.983235 )

     PseudoPot. # 1 for W  read from file:
     /scratch/beachk2/Korea/W-V-Se/W.pbesol-spn-kjpaw_psl.0.2.3.UPF
     MD5 check sum: 3489c92d351ecbcf2c7b5f80874fc77e
     Pseudo is Projector augmented-wave + core cor, Zval = 14.0
     Generated using "atomic" code by A. Dal Corso v.5.0.99 svn rev. 10869
     Shape of augmentation charge: BESSEL
     Using radial grid of 1273 points,  6 beta functions with:
                l(1) =   0
                l(2) =   0
                l(3) =   1
                l(4) =   1
                l(5) =   2
                l(6) =   2
     Q(r) pseudized with 0 coefficients

     PseudoPot. # 2 for Se read from file:
     /scratch/beachk2/Korea/W-V-Se/Se.pbesol-n-kjpaw_psl.0.2.UPF
     MD5 check sum: de07b397db81a61c301b7fc26c6d7f40
     Pseudo is Projector augmented-wave + core cor, Zval =  6.0
     Generated using "atomic" code by A. Dal Corso v.5.0.99 svn rev. 10869
     Shape of augmentation charge: PSQ
     Using radial grid of 1211 points,  4 beta functions with:
                l(1) =   0
                l(2) =   0
                l(3) =   1
                l(4) =   1
     Q(r) pseudized with 0 coefficients

     atomic species   valence    mass     pseudopotential
        W             14.00   183.84000     W ( 1.00)
        Se             6.00    78.96000     Se( 1.00)

     No symmetry found

   Cartesian axes

     site n.     atom                  positions (alat units)
         1           W   tau(   1) = (  -0.1665654   0.3837085   0.3681748  )
         2           W   tau(   2) = (   0.0010835   0.3854039   0.3681649  )
         3           W   tau(   3) = (   0.1667867   0.3852129   0.3681721  )
         4           W   tau(   4) = (   0.3324762   0.3853714   0.3681655  )
         5           W   tau(   5) = (  -0.2513137   0.5305827   0.3681792  )
         6           W   tau(   6) = (  -0.0838709   0.5293047   0.3681800  )
         7           W   tau(   7) = (   0.0833073   0.5296707   0.3681724  )
         8           W   tau(   8) = (   0.2503375   0.5296697   0.3681727  )
         9           W   tau(   9) = (   0.5001090   0.3836671   0.3681755  )
        10           W   tau(  10) = (   0.4174910   0.5292940   0.3681795  )
        11           W   tau(  11) = (   0.5849156   0.5305583   0.3681787  )
        12           W   tau(  12) = (  -0.3331782   0.6746437   0.3681827  )
        13           W   tau(  13) = (  -0.1659798   0.6748661   0.3681651  )
        14           W   tau(  14) = (   0.0000859   0.6738576   0.3681721  )
        15           W   tau(  15) = (   0.1668460   0.6740104   0.3681641  )
        16           W   tau(  16) = (  -0.4165315   0.8185364   0.3681733  )
        17           W   tau(  17) = (  -0.2498262   0.8185150   0.3681751  )
        18           W   tau(  18) = (  -0.0832639   0.8184089   0.3681732  )
        19           W   tau(  19) = (   0.0835999   0.8185013   0.3681698  )
        20           W   tau(  20) = (   0.0002305   0.0966313   0.3681706  )
        21           W   tau(  21) = (   0.1667970   0.0966886   0.3681648  )
        22           W   tau(  22) = (   0.3333612   0.0965790   0.3681716  )
        23           W   tau(  23) = (   0.4996900   0.0957922   0.3681651  )
        24           W   tau(  24) = (  -0.0827395   0.2407550   0.3681776  )
        25           W   tau(  25) = (   0.0835649   0.2409620   0.3681724  )
        26           W   tau(  26) = (   0.2499895   0.2409345   0.3681724  )
        27           W   tau(  27) = (   0.4162839   0.2406976   0.3681782  )
        28           W   tau(  28) = (   0.3335920   0.6738742   0.3681719  )
        29           W   tau(  29) = (   0.4996302   0.6748891   0.3681664  )
        30           W   tau(  30) = (   0.2500753   0.8185199   0.3681694  )
        31           W   tau(  31) = (   0.4169231   0.8184583   0.3681723  )
        32           W   tau(  32) = (   0.6667999   0.0974585   0.3681780  )
        33           W   tau(  33) = (   0.8339064   0.0958436   0.3681640  )
        34           W   tau(  34) = (   0.5819726   0.2418296   0.3681748  )
        35           W   tau(  35) = (   0.7515457   0.2418697   0.3681786  )
        36           Se  tau(  36) = (  -0.0821561   0.3370493   0.2830704  )
        37           Se  tau(  37) = (   0.0838248   0.3370706   0.2827682  )
        38           Se  tau(  38) = (   0.2497289   0.3370439   0.2827698  )
        39           Se  tau(  39) = (   0.4156925   0.3369958   0.2830734  )
        40           Se  tau(  40) = (  -0.1678841   0.4808383   0.2835568  )
        41           Se  tau(  41) = (  -0.0001564   0.4816347   0.2829762  )
        42           Se  tau(  42) = (   0.1668190   0.4816030   0.2830729  )
        43           Se  tau(  43) = (   0.3337772   0.4816100   0.2829781  )
        44           Se  tau(  44) = (  -0.0821495   0.3370535   0.4532735  )
        45           Se  tau(  45) = (   0.0838216   0.3370726   0.4535711  )
        46           Se  tau(  46) = (   0.2497314   0.3370457   0.4535703  )
        47           Se  tau(  47) = (   0.4156858   0.3370000   0.4532717  )
        48           Se  tau(  48) = (  -0.1678843   0.4808361   0.4527995  )
        49           Se  tau(  49) = (  -0.0001511   0.4816281   0.4533677  )
        50           Se  tau(  50) = (   0.1668185   0.4816030   0.4532722  )
        51           Se  tau(  51) = (   0.3337728   0.4816039   0.4533667  )
        52           Se  tau(  52) = (   0.5829569   0.3369472   0.2836719  )
        53           Se  tau(  53) = (   0.7505472   0.3370051   0.2836908  )
        54           Se  tau(  54) = (   0.5014790   0.4808053   0.2835589  )
        55           Se  tau(  55) = (   0.6667997   0.4821708   0.2836783  )
        56           Se  tau(  56) = (   0.5829521   0.3369472   0.4526766  )
        57           Se  tau(  57) = (   0.7505508   0.3370018   0.4526629  )
        58           Se  tau(  58) = (   0.5014790   0.4808031   0.4527968  )
        59           Se  tau(  59) = (   0.6668027   0.4821791   0.4526840  )
        60           Se  tau(  60) = (  -0.2494942   0.6270060   0.2830692  )
[...]
        93           Se  tau(  93) = (   0.5831301   0.6270027   0.2830772  )
        94           Se  tau(  94) = (   0.3334619   0.7702350   0.2830716  )
        95           Se  tau(  95) = (   0.5001066   0.7707099   0.2827673  )
        96           Se  tau(  96) = (   0.7499459   0.0487963   0.2829775  )
        97           Se  tau(  97) = (   0.9171305   0.0483493   0.2827666  )
        98           Se  tau(  98) = (   0.6667701   0.1944484   0.2835566  )
        99           Se  tau(  99) = (   0.8341587   0.1921051   0.2830685  )
       100           Se  tau( 100) = (   0.4169363   0.6256450   0.4533633  )
       101           Se  tau( 101) = (   0.5831210   0.6270056   0.4532741  )
       102           Se  tau( 102) = (   0.3334610   0.7702363   0.4532718  )
       103           Se  tau( 103) = (   0.5001053   0.7707084   0.4535743  )
       104           Se  tau( 104) = (   0.7499532   0.0487953   0.4533627  )
       105           Se  tau( 105) = (   0.9171278   0.0483519   0.4535711  )
       106           Se  tau( 106) = (   0.6667688   0.1944494   0.4527968  )
       107           Se  tau( 107) = (   0.8341590   0.1920959   0.4532763  )

     number of k points=     4  Marzari-Vanderbilt smearing, width (Ry)=  0.0050
                       cart. coord. in units 2pi/alat
        k(    1) = (   0.0000000   0.0000000   0.0000000), wk =   0.5000000
        k(    2) = (   0.0000000  -0.5773505   0.0000000), wk =   0.5000000
        k(    3) = (   0.5000000  -0.2886753   0.0000000), wk =   0.5000000
        k(    4) = (  -0.5000000  -0.2886752   0.0000000), wk =   0.5000000

     Check: negative/imaginary core charge=   -0.000012    0.000000

     Initial potential from superposition of free atoms
     Check: negative starting charge=   -0.045985

     starting charge  921.97512, renormalised to  922.00000

     negative rho (up, down):  4.599E-02 0.000E+00
     Starting wfcs are  743 randomized atomic wfcs
     Checking if some PAW data can be deallocated...

     Self-consistent Calculation

     iteration #  1     ecut=    30.00 Ry     beta= 0.20
     Davidson diagonalization with overlap
     ethr =  1.00E-02,  avg # of iterations =  2.0

     Threshold (ethr) on eigenvalues was too large:
     Diagonalizing with lowered threshold

     Davidson diagonalization with overlap
     ethr =  2.99E-04,  avg # of iterations =  2.8

     negative rho (up, down):  4.702E-02 0.000E+00

     total energy              =  -39671.86918774 Ry
     Harris-Foulkes estimate   =  -39672.57737691 Ry
     estimated scf accuracy    <       2.86361586 Ry

[...]

     iteration #  4     ecut=    30.00 Ry     beta= 0.20
     Davidson diagonalization with overlap
     c_bands:  2 eigenvalues not converged
     c_bands:  4 eigenvalues not converged
     c_bands:  1 eigenvalues not converged
     ethr =  3.68E-05,  avg # of iterations = 19.8

[...]

     iteration #  7     ecut=    30.00 Ry     beta= 0.20
     Davidson diagonalization with overlap
     c_bands:  1 eigenvalues not converged
     ethr =  3.28E-06,  avg # of iterations =  8.0

[...]

     total energy              =  -39671.72219811 Ry
     Harris-Foulkes estimate   =  -39671.72219816 Ry
     estimated scf accuracy    <       0.00000019 Ry

     iteration # 19     ecut=    30.00 Ry     beta= 0.20
     Davidson diagonalization with overlap
     ethr =  2.02E-11,  avg # of iterations =  2.0

     negative rho (up, down):  4.946E-02 0.000E+00

     End of self-consistent calculation

          k = 0.0000 0.0000 0.0000 (125381 PWs)   bands (ev):

   -74.2587 -74.2575 -74.2572 -74.2546 -74.2542 -74.2530 -74.1369 -74.1366
   -74.1365 -74.1147 -74.1136 -74.1136 -74.1111 -74.1099 -74.1099 -74.1077
   -74.1077 -74.1065 -74.1059 -74.1032 -74.1024 -74.1024 -74.0995 -74.0995
   -74.0989 -74.0980 -74.0930 -74.0930 -74.0928 -74.0715 -74.0714 -74.0711
   -74.0711 -74.0710 -74.0709 -38.6040 -38.5930 -38.5928 -38.5450 -38.5449
   -38.5358 -38.4699 -38.4595 -38.4563 -38.4561 -38.4537 -38.4534 -38.4411
   -38.4407 -38.4360 -38.4348 -38.4334 -38.4333 -38.4218 -38.4218 -38.4193
   -38.4190 -38.4169 -38.4169 -38.3991 -38.3990 -38.3983 -38.3935 -38.3935
   -38.3896 -38.3837 -38.3836 -38.3757 -38.3757 -38.3666 -38.3581 -38.3581
   -38.3550 -38.3519 -38.3517 -38.3501 -38.3486 -38.3384 -38.3383 -38.3379
   -38.3340 -38.3339 -38.3284 -38.3283 -38.3251 -38.3250 -38.3241 -38.3225
   -38.3225 -38.3215 -38.3172 -38.3162 -38.3150 -38.3150 -38.3147 -38.3139
   -38.3139 -38.3102 -38.3085 -38.3045 -38.3044 -38.3034 -38.3019 -38.3018
   -38.2999 -38.2954 -38.2954 -38.2883 -38.2838 -38.2835 -38.2833 -38.2832
   -38.2831 -38.2828 -38.2826 -38.2814 -38.2791 -38.2750 -38.2750 -38.2748
   -38.2642 -38.2620 -38.2619 -38.2615 -38.2614 -38.2553 -38.2545 -38.2520
   -38.2520 -38.2485 -38.2453 -38.2452 -38.2301 -38.2298 -38.2248 -38.2220
   -38.2219 -38.2103 -38.2071 -38.2071 -14.9353 -14.5535 -14.5503 -14.5502
   -14.5296 -14.5295 -14.3419 -13.8431 -13.8431 -13.8310 -13.7885 -13.7884
   -13.7174 -13.6652 -13.5577 -13.5577 -13.5558 -13.4801 -13.4787 -13.4785
   -13.4750 -13.4750 -13.4524 -13.4524 -13.3409 -13.3003 -13.1224 -13.1223
   -13.1133 -13.0873 -13.0873 -13.0593 -12.9886 -12.9886 -12.9828 -12.9537
   -12.9537 -12.9326 -12.9311 -12.9311 -12.9280 -12.9280 -12.9274 -12.9240
   -12.9238 -12.9177 -12.9087 -12.9056 -12.9054 -12.8415 -12.6930 -12.6930
   -12.6915 -12.6910 -12.6890 -12.6849 -12.6817 -12.6816 -12.6782 -12.6779
   -12.6768 -12.6675 -12.6674 -12.6643 -12.5319 -12.5319 -12.5223 -12.3453
   -12.2695 -12.2689 -11.9286 -11.9283  -6.5063  -6.5062  -6.4824  -6.3636
    -5.9625  -5.9588  -5.9588  -5.9519  -5.9425  -5.9424  -5.9358  -5.9279
    -5.9277  -5.8820  -5.8812  -5.8811  -5.8574  -5.8573  -5.8476  -5.8474
    -5.7625  -5.6946  -5.6042  -5.6041  -5.5728  -5.5385  -5.5385  -5.5142
    -5.5142  -5.4930  -5.4121  -5.2812  -5.2812  -5.2674  -5.1672  -5.1665
    -5.1665  -5.1627  -5.1622  -5.1622  -5.1559  -5.1451  -5.1451  -5.1448
    -5.1397  -5.1397  -5.1182  -5.0364  -5.0363  -5.0355  -4.9665  -4.9139
    -4.9136  -4.6351  -4.6349  -4.6290  -4.5906  -4.5768  -4.5768  -4.5542
    -4.5540  -4.5247  -4.5247  -4.5095  -4.4771  -4.4771  -4.4756  -4.4314
    -4.4265  -4.4262  -4.4242  -4.4242  -4.3342  -4.3137  -4.3137  -4.3028
    -4.2368  -4.2367  -4.2324  -4.2245  -4.2245  -4.2136  -4.2134  -4.2116
    -4.0294  -3.9543  -3.9542  -3.8540  -3.8012  -3.7852  -3.7851  -3.7678
    -3.7677  -3.6665  -3.6445  -3.6444  -3.5160  -3.5159  -3.5006  -3.4631
    -3.4547  -3.4496  -3.4495  -3.4427  -3.4418  -3.4416  -3.4310  -3.4310
    -3.4302  -3.3880  -3.3815  -3.3813  -3.3242  -3.2981  -3.2980  -3.2915
    -3.2470  -3.2420  -3.2414  -3.1984  -3.1980  -3.1569  -3.0990  -3.0990
    -3.0965  -3.0562  -3.0552  -3.0551  -2.9660  -2.8848  -2.8848  -2.7883
    -2.7882  -2.7785  -2.7783  -2.7766  -2.7426  -2.7376  -2.7375  -2.7330
    -2.7325  -2.7268  -2.7267  -2.6945  -2.6069  -2.6065  -2.5556  -2.4960
    -2.4960  -2.3750  -2.3747  -2.3304  -2.3299  -2.2930  -2.2675  -2.2421
    -2.2418  -2.1170  -2.1117  -2.1116  -2.1097  -2.1014  -2.1012  -2.0952
    -2.0948  -2.0816  -2.0812  -2.0811  -2.0782  -2.0750  -2.0746  -2.0685
    -2.0669  -2.0549  -2.0549  -2.0402  -2.0402  -2.0266  -2.0089  -1.9865
    -1.9863  -1.9861  -1.8806  -1.8758  -1.8757  -1.8609  -1.8535  -1.8534
    -1.8359  -1.7530  -1.7528  -1.4411  -1.4409  -1.4017  -1.3995  -1.3994
    -1.3911  -1.3546  -1.3543  -1.3529  -1.3457  -1.3456  -1.3371  -1.3184
    -1.3181  -1.3107  -1.3106  -1.2879  -1.2879  -1.2714  -1.2517  -1.2109
    -1.2109  -1.1844  -1.1160  -1.1159  -1.0738  -1.0133  -1.0131  -0.9074
    -0.8911  -0.8911  -0.8645  -0.8645  -0.8463  -0.8319  -0.7899  -0.7743
    -0.7742  -0.6885  -0.6883  -0.6848  -0.6648  -0.6646  -0.6193  -0.6091
    -0.6090  -0.6017  -0.6008  -0.6006  -0.5721  -0.5463  -0.5461  -0.5119
    -0.4639  -0.1815  -0.1812   0.2467   0.2474   0.5103   0.5113   0.5829
     1.5659   1.6071   1.6123   1.6123   1.6197   1.6582   1.6584   1.6968
     2.0231   2.0268   2.0269   2.0472   2.0474   2.0576   2.0580   2.0678
     2.0750   2.0751   2.0853   2.1062   2.1063   2.1185   2.1273   2.1274
     2.1318   2.1438   2.1439   2.1784   2.1787   2.1913   2.1914   2.2641
     2.2959   2.2960   2.2999   2.3400   2.3401   2.3814   2.3943   2.4211
     2.4212   2.4407   2.4491   2.4491   2.4976   2.4976   2.4996   2.5071
     2.5074   2.5077   2.5102   2.5430   2.5432   2.5818   2.5821   2.6132
     2.6425   2.6650   2.6697   2.6698   2.6883   2.6952   2.6952   2.7228
     2.7229   2.7527   2.7528   2.7772   2.7789   2.7796   2.7797   2.7911
     2.7912   2.7917   2.7920   2.7969   2.7970   2.7993   2.8259   2.9812
     2.9814   3.1179   3.1331   3.1362   3.1369   3.1412   3.1418   3.1530
     3.1531

[...]

          k = 0.5000-0.2887 0.0000 (125440 PWs)   bands (ev):

[...]

          k =-0.5000-0.2887 0.0000 (125440 PWs)   bands (ev):

   -74.2588 -74.2575 -74.2572 -74.2546 -74.2542 -74.2530 -74.1369 -74.1366
   -74.1365 -74.1147 -74.1136 -74.1136 -74.1111 -74.1099 -74.1099 -74.1077
   -74.1077 -74.1065 -74.1059 -74.1033 -74.1024 -74.1024 -74.0995 -74.0995
   -74.0989 -74.0980 -74.0930 -74.0930 -74.0928 -74.0715 -74.0714 -74.0711
   -74.0711 -74.0710 -74.0709 -38.6040 -38.5929 -38.5927 -38.5455 -38.5454
   -38.5354 -38.4682 -38.4595 -38.4560 -38.4540 -38.4537 -38.4535 -38.4411
   -38.4407 -38.4379 -38.4349 -38.4342 -38.4316 -38.4264 -38.4239 -38.4210
   -38.4187 -38.4145 -38.4121 -38.4091 -38.4019 -38.3992 -38.3987 -38.3969
   -38.3881 -38.3789 -38.3765 -38.3693 -38.3676 -38.3614 -38.3586 -38.3556
   -38.3547 -38.3546 -38.3521 -38.3518 -38.3490 -38.3391 -38.3382 -38.3370
   -38.3363 -38.3341 -38.3285 -38.3279 -38.3250 -38.3248 -38.3237 -38.3227
   -38.3211 -38.3158 -38.3158 -38.3154 -38.3153 -38.3144 -38.3143 -38.3136
   -38.3132 -38.3115 -38.3113 -38.3087 -38.3084 -38.3080 -38.3046 -38.3042
   -38.3037 -38.2968 -38.2968 -38.2867 -38.2852 -38.2839 -38.2838 -38.2834
   -38.2825 -38.2822 -38.2818 -38.2817 -38.2815 -38.2751 -38.2742 -38.2697
   -38.2694 -38.2673 -38.2644 -38.2638 -38.2588 -38.2578 -38.2543 -38.2491
   -38.2483 -38.2444 -38.2401 -38.2349 -38.2338 -38.2270 -38.2249 -38.2197
   -38.2193 -38.2177 -38.2110 -38.2078 -14.8556 -14.8060 -14.6400 -14.5791
   -14.2673 -14.2452 -14.2404 -14.1745 -14.0680 -13.9807 -13.7614 -13.7613
   -13.7051 -13.6281 -13.6174 -13.5980 -13.5140 -13.4781 -13.3510 -13.3341
   -13.3302 -13.3259 -13.3172 -13.3084 -13.2874 -13.2815 -13.2594 -13.2274
   -13.2168 -13.1766 -13.1683 -13.1417 -13.0859 -13.0857 -13.0847 -13.0393
   -12.9939 -12.9437 -12.9366 -12.9300 -12.9132 -12.9080 -12.8799 -12.8725
   -12.8702 -12.8554 -12.8457 -12.8181 -12.8081 -12.7845 -12.7833 -12.7676
   -12.7438 -12.7410 -12.7110 -12.6894 -12.6882 -12.6859 -12.6841 -12.6771
   -12.6713 -12.6157 -12.5921 -12.5772 -12.5664 -12.5506 -12.5109 -12.3446
   -12.2728 -12.2688 -11.9286 -11.9281  -6.3684  -6.3667  -6.3105  -6.2860
    -6.2653  -6.2557  -6.2292  -6.1963  -6.1345  -6.0373  -5.9928  -5.9232
    -5.8807  -5.8743  -5.8478  -5.8343  -5.7122  -5.7037  -5.6774  -5.6707
    -5.6260  -5.5442  -5.5281  -5.5257  -5.5161  -5.4612  -5.4611  -5.4529
    -5.4465  -5.4453  -5.4201  -5.4184  -5.4113  -5.3830  -5.3375  -5.3311
    -5.3251  -5.2859  -5.2599  -5.2442  -5.2329  -5.1890  -5.1867  -5.1511
    -5.1288  -5.0795  -5.0576  -5.0575  -5.0400  -4.9525  -4.8276  -4.8181
    -4.7401  -4.7387  -4.6198  -4.6018  -4.5808  -4.5761  -4.5560  -4.5431
    -4.4597  -4.4443  -4.4379  -4.4312  -4.4220  -4.4185  -4.4078  -4.3811
    -4.3738  -4.3734  -4.3655  -4.3476  -4.3134  -4.2981  -4.2787  -4.2713
    -4.2518  -4.2040  -4.1984  -4.1731  -4.1613  -4.1501  -4.1171  -4.1134
    -4.0980  -4.0822  -4.0551  -4.0527  -4.0203  -4.0168  -3.9148  -3.8270
    -3.7714  -3.7553  -3.7383  -3.6675  -3.6242  -3.5723  -3.5533  -3.4983
    -3.4960  -3.4843  -3.4836  -3.4835  -3.4649  -3.4543  -3.4422  -3.4392
    -3.4169  -3.4145  -3.4020  -3.3848  -3.3818  -3.3483  -3.2566  -3.2529
    -3.2359  -3.2286  -3.2091  -3.1867  -3.1750  -3.1604  -3.1531  -3.1433
    -3.0970  -3.0823  -3.0725  -3.0087  -2.9952  -2.9648  -2.9503  -2.9333
    -2.8900  -2.8574  -2.7642  -2.7417  -2.7342  -2.7250  -2.6664  -2.6408
    -2.5677  -2.5417  -2.5314  -2.5305  -2.4877  -2.4682  -2.4646  -2.4595
    -2.4135  -2.3536  -2.3454  -2.3322  -2.3306  -2.3219  -2.3149  -2.3022
    -2.2667  -2.2558  -2.2365  -2.2323  -2.2268  -2.2054  -2.2013  -2.1790
    -2.1353  -2.0592  -2.0567  -2.0532  -2.0192  -2.0101  -2.0006  -1.9944
    -1.9198  -1.8993  -1.8967  -1.8915  -1.8879  -1.8848  -1.8659  -1.8446
    -1.8441  -1.8301  -1.8279  -1.8145  -1.7894  -1.7646  -1.7527  -1.7483
    -1.7403  -1.7249  -1.7157  -1.6953  -1.6690  -1.6558  -1.6541  -1.6478
    -1.6330  -1.6044  -1.5791  -1.5581  -1.5308  -1.5075  -1.4361  -1.3634
    -1.3136  -1.3074  -1.2888  -1.2763  -1.2521  -1.2436  -1.1888  -1.1828
    -1.1779  -1.0563  -1.0120  -1.0015  -0.9847  -0.9805  -0.9741  -0.9219
    -0.8874  -0.8624  -0.8600  -0.8502  -0.8275  -0.8264  -0.8047  -0.7983
    -0.7792  -0.7677  -0.7551  -0.7464  -0.6630  -0.6572  -0.6478  -0.6235
    -0.6206  -0.6128  -0.5685  -0.5584  -0.5211  -0.4728  -0.4574  -0.3807
    -0.3676  -0.3043  -0.2752   0.2538   0.2623   0.4738   0.4834   0.5968
     1.7309   1.7490   1.7549   1.7572   1.7635   1.7765   1.7969   1.7978
     1.8127   1.8228   1.8287   1.8598   1.8610   1.8772   1.8865   1.9226
     1.9318   1.9807   2.0060   2.0349   2.0404   2.0641   2.0880   2.1667
     2.1718   2.1925   2.2297   2.2704   2.2968   2.3368   2.3544   2.3565
     2.3691   2.3820   2.3846   2.3950   2.4049   2.4082   2.4295   2.4312
     2.4347   2.4478   2.4538   2.4555   2.4623   2.4799   2.4896   2.4927
     2.4987   2.5073   2.5380   2.5397   2.5540   2.5740   2.5769   2.6120
     2.6207   2.6252   2.6611   2.6739   2.7048   2.7183   2.7212   2.7290
     2.7446   2.7449   2.7491   2.7648   2.7651   2.7916   2.7933   2.7999
     2.8099   2.8256   2.8270   2.8282   2.8330   2.8359   2.8485   2.8508
     2.8884   2.9016   2.9059   2.9571   2.9974   3.0089   3.0442   3.0661
     3.1415

     the Fermi energy is     0.3187 ev

!    total energy              =  -39671.72219809 Ry
     Harris-Foulkes estimate   =  -39671.72219813 Ry
     estimated scf accuracy    <       0.00000005 Ry

     total all-electron energy =  -1479374.837567 Ry

     The total energy is the sum of the following terms:

     one-electron contribution =  -35461.26137889 Ry
     hartree contribution      =   17831.54403396 Ry
     xc contribution           =   -2368.78330566 Ry
     ewald contribution        =   12656.41857052 Ry
     one-center paw contrib.   =  -32329.64177583 Ry
     smearing contrib. (-TS)   =       0.00165782 Ry

     convergence has been achieved in  19 iterations

     Writing output data file v.save/

     General routines

     Parallel routines

   This run was terminated on:  18:36:14  18Jan2019

   JOB DONE.